Route #1: 46 118 17 18 113 114 115 116 131 117 119 130 65 19
Route #2: 106 107 108 109 120 121 127 128 129 126
Route #3: 81 112 124 123 122 110 111 125 132 71 66
Route #4: 23 24 22 59 60 61 62 50 51 52 54 53 102 104 101 100 98 103 55 31 30 28 27 26 25 21 91
Route #5: 93 94 45 39 2 12 11 10 9 8 7 6 5 4 42 3 41 44 43 40 95 37 38 96 97 36 35 99 56 57 58
Route #6: 105 49 48 34 32 134 76 77 64 63 79 67 70 69 68 80 33 133 78 74 73
Route #7: 72 47 75 1 29 92 90 89 16 13 15 14 88 87 86 84 85 83 20 82
Cost 1267
